param n := 60;
param m := 6;


param p :=
1	165
2	215
3	255
4	210
5	180
6	425
7	255
8	255
9	185
10	200
11	265
12	225
13	80
14	90
15	60
16	60
17	80
18	70
19	75
20	85
21	85
22	75
23	85
24	65
25	60
26	60
27	70
28	65
29	65
30	60
31	70
32	60
33	40
34	75
35	60
36	65
37	70
38	65
39	180
40	195
41	235
42	210
43	185
44	145
45	80
46	85
47	155
48	70
49	65
50	65
51	70
52	70
53	85
54	90
55	115
56	85
57	110
58	115
59	95
60	85
;
